1 1191.92
2 1262.18
3 1321.2
4 1338.86
5 1362.22
6 1369.22
7 1381.06
8 1386.51
9 1389.16
10 1394.82
11 1394.82
12 1399.02
13 1399.02
14 1399.02
15 1399.02
16 1399.02
17 1399.02
18 1399.02
19 1399.02
20 1399.02
21 1399.02
22 1399.02
23 1399.02
24 1399.02
25 1399.02
26 1399.02
27 1399.02
28 1399.02
29 1399.02
30 1399.02
31 1399.02
32 1399.02
33 1399.02
34 1399.02
35 1399.02
36 1399.02
37 1399.02
38 1399.02
39 1399.02
40 1399.02
41 1399.02
42 1399.02
43 1399.02
44 1399.02
45 1399.02
46 1399.02
47 1399.02
48 1399.02
49 1399.02
50 1399.02
51 1399.02
52 1399.02
53 1399.02
54 1399.02
55 1399.02
56 1399.02
57 1399.02
58 1399.02
59 1399.02
60 1399.02
61 1399.02
62 1399.02
63 1399.02
64 1399.02
65 1399.02
66 1399.02
67 1399.02
68 1399.02
69 1399.02
70 1399.02
71 1399.02
72 1399.02
73 1399.02
74 1399.02
75 1399.02
76 1399.02
77 1399.02
78 1399.02
79 1399.02
80 1399.02
81 1399.02
82 1399.02
83 1399.02
84 1399.02
85 1399.02
86 1399.02
87 1399.02
88 1399.02
89 1399.02
90 1399.02
91 1399.02
92 1399.02
93 1399.02
94 1399.02
95 1399.02
96 1399.02
97 1399.02
98 1399.02
99 1399.02
100 1399.02
101 1399.02
102 1399.02
103 1399.02
104 1399.02
105 1399.02
106 1399.02
107 1399.02
108 1399.02
109 1399.02
110 1399.02
111 1399.02
112 1399.02
113 1399.02
114 1399.02
115 1399.02
116 1399.02
117 1399.02
118 1399.02
119 1399.02
120 1399.02
121 1399.02
122 1399.02
123 1399.02
124 1399.02
125 1399.02
126 1399.02
127 1399.02
128 1399.02
129 1399.02
130 1399.02
131 1399.02
132 1399.02
133 1399.02
134 1399.02
135 1399.02
136 1399.02
137 1399.02
138 1399.02
139 1399.02
140 1399.02
141 1399.02
142 1399.02
143 1399.02
144 1399.02
145 1399.02
146 1399.02
147 1399.02
148 1399.02
149 1399.02
150 1399.02
151 1399.02
152 1399.02
153 1399.02
154 1399.02
155 1399.02
156 1399.02
157 1399.02
158 1399.02
159 1399.02
160 1399.02
161 1399.02
162 1399.02
163 1399.02
164 1399.02
165 1399.02
166 1399.02
167 1399.02
168 1399.02
169 1399.02
170 1399.02
171 1399.02
172 1399.02
173 1399.02
174 1399.02
175 1399.02
176 1399.02
177 1399.02
178 1399.02
179 1399.02
180 1399.02
181 1399.02
182 1399.02
183 1399.02
184 1399.02
185 1399.02
186 1399.02
187 1399.02
188 1399.02
189 1399.02
190 1399.02
191 1399.02
192 1399.02
193 1399.02
194 1399.02
195 1399.02
196 1399.02
197 1399.02
198 1399.02
199 1399.02
200 1399.02
201 1399.02
202 1399.02
203 1399.02
204 1399.02
205 1399.02
206 1399.02
207 1399.02
208 1399.02
209 1399.02
210 1399.02
211 1399.02
212 1399.02
213 1399.02
214 1399.02
215 1399.02
216 1399.02
217 1399.02
218 1399.02
219 1399.02
220 1399.02
221 1399.02
222 1399.02
223 1399.02
224 1399.02
225 1399.02
226 1399.02
227 1399.02
228 1399.02
229 1399.02
230 1399.02
231 1399.02
232 1399.02
233 1399.02
234 1399.02
235 1399.02
236 1399.02
237 1399.02
238 1399.02
239 1399.02
240 1399.02
241 1399.02
242 1399.02
243 1399.02
244 1399.02
245 1399.02
246 1399.02
247 1399.02
248 1399.02
249 1399.02
250 1399.02
251 1399.02
252 1399.02
253 1399.02
254 1399.02
255 1399.02
256 1399.02
257 1399.02
258 1399.02
259 1399.02
260 1399.02
261 1399.02
262 1399.02
263 1399.02
264 1399.02
265 1399.02
266 1399.02
267 1399.02
268 1399.02
269 1399.02
270 1399.02
271 1399.02
272 1399.02
273 1399.02
274 1399.02
275 1399.02
276 1399.02
277 1399.02
278 1399.02
279 1399.02
280 1399.02
281 1399.02
282 1399.02
283 1399.02
284 1399.02
285 1399.02
286 1399.02
287 1399.02
288 1399.02
289 1399.02
290 1399.02
291 1399.02
292 1399.02
293 1399.02
294 1399.02
295 1399.02
296 1399.02
297 1399.02
298 1399.02
299 1399.02
300 1399.02
301 1399.02
302 1399.02
303 1399.02
304 1399.02
305 1399.02
306 1399.02
307 1399.02
308 1399.02
309 1399.02
310 1399.02
311 1399.02
312 1399.02
313 1399.02
314 1399.02
315 1399.02
316 1399.02
317 1399.02
318 1399.02
319 1399.02
320 1399.02
321 1399.02
322 1399.02
323 1399.02
324 1399.02
325 1399.02
326 1399.02
327 1399.02
328 1399.02
329 1399.02
330 1399.02
331 1399.02
332 1399.02
333 1399.02
334 1399.02
335 1399.02
336 1399.02
337 1399.02
338 1399.02
339 1399.02
340 1399.02
341 1399.02
342 1399.02
343 1399.02
344 1399.02
345 1399.02
346 1399.02
347 1399.02
348 1399.02
349 1399.02
350 1399.02
351 1399.02
352 1399.02
353 1399.02
354 1399.02
355 1399.02
356 1399.02
357 1399.02
358 1399.02
359 1399.02
360 1399.02
361 1399.02
362 1399.02
363 1399.02
364 1399.02
365 1399.02
366 1399.02
367 1399.02
368 1399.02
369 1399.02
370 1399.02
371 1399.02
372 1399.02
373 1399.02
374 1399.02
375 1399.02
376 1399.02
377 1399.02
378 1399.02
379 1399.02
380 1399.02
381 1399.02
382 1399.02
383 1399.02
384 1399.02
385 1399.02
386 1399.02
387 1399.02
388 1399.02
389 1399.02
390 1399.02
391 1399.02
392 1399.02
393 1399.02
394 1399.02
395 1399.02
396 1399.02
397 1399.02
398 1399.02
399 1399.02
400 1399.02
401 1399.02
402 1399.02
403 1399.02
404 1399.02
405 1399.02
406 1399.02
407 1399.02
408 1399.02
409 1399.02
410 1399.02
411 1399.02
412 1399.02
413 1399.02
414 1399.02
415 1399.02
416 1399.02
417 1399.02
418 1399.02
419 1399.02
420 1399.02
421 1399.02
422 1399.02
423 1399.02
424 1399.02
425 1399.02
426 1399.02
427 1399.02
428 1399.02
429 1399.02
430 1399.02
431 1399.02
432 1399.02
433 1399.02
434 1399.02
435 1399.02
436 1399.02
437 1399.02
438 1399.02
439 1399.02
440 1399.02
441 1399.02
442 1399.02
443 1399.02
444 1399.02
445 1399.02
446 1399.02
447 1399.02
448 1399.02
449 1399.02
450 1399.02
451 1399.02
452 1399.02
453 1399.02
454 1399.02
455 1399.02
456 1399.02
457 1399.02
458 1399.02
459 1399.02
460 1399.02
461 1399.02
462 1399.02
463 1399.02
464 1399.02
465 1399.02
466 1399.02
467 1399.02
468 1399.02
469 1399.02
470 1399.02
471 1399.02
472 1399.02
473 1399.02
474 1399.02
475 1399.02
476 1399.02
477 1399.02
478 1399.02
479 1399.02
480 1399.02
481 1399.02
482 1399.02
483 1399.02
484 1399.02
485 1399.02
486 1399.02
487 1399.02
488 1399.02
489 1399.02
490 1399.02
491 1399.02
492 1399.02
493 1399.02
494 1399.02
495 1399.02
496 1399.02
497 1399.02
498 1399.02
499 1399.02
500 1399.02
501 1399.02
502 1399.02
503 1399.02
504 1399.02
505 1399.02
506 1399.02
507 1399.02
508 1399.02
509 1399.02
510 1399.02
511 1399.02
512 1399.02
513 1399.02
514 1399.02
515 1399.02
516 1399.02
517 1399.02
518 1399.02
519 1399.02
520 1399.02
521 1399.02
522 1399.02
523 1399.02
524 1399.02
525 1399.02
526 1399.02
527 1399.02
528 1399.02
529 1399.02
530 1399.02
531 1399.02
532 1399.02
533 1399.02
534 1399.02
535 1399.02
536 1399.02
537 1399.02
538 1399.02
539 1399.02
540 1399.02
541 1399.02
542 1399.02
543 1399.02
544 1399.02
545 1399.02
546 1399.02
547 1399.02
548 1399.02
549 1399.02
550 1399.02
551 1399.02
552 1399.02
553 1399.02
554 1399.02
555 1399.02
556 1399.02
557 1399.02
558 1399.02
559 1399.02
560 1399.02
561 1399.02
562 1399.02
563 1399.02
564 1399.02
565 1399.02
566 1399.02
567 1399.02
568 1399.02
569 1399.02
570 1399.02
571 1399.02
572 1399.02
573 1399.02
574 1399.02
575 1399.02
576 1399.02
577 1399.02
578 1399.02
579 1399.02
580 1399.02
581 1399.02
582 1399.02
583 1399.02
584 1399.02
585 1399.02
586 1399.02
587 1399.02
588 1399.02
589 1399.02
590 1399.02
591 1399.02
592 1399.02
593 1399.02
594 1399.02
595 1399.02
596 1399.02
597 1399.02
598 1399.02
599 1399.02
600 1399.02
601 1399.02
602 1399.02
603 1399.02
604 1399.02
605 1399.02
606 1399.02
607 1399.02
608 1399.02
609 1399.02
610 1399.02
611 1399.02
612 1399.02
613 1399.02
614 1399.02
615 1399.02
616 1399.02
617 1399.02
618 1399.02
619 1399.02
620 1399.02
621 1399.02
622 1399.02
623 1399.02
624 1399.02
625 1399.02
626 1399.02
627 1399.02
628 1399.02
629 1399.02
630 1399.02
631 1399.02
632 1399.02
633 1399.02
634 1399.02
635 1399.02
636 1399.02
637 1399.02
638 1399.02
639 1399.02
640 1399.02
641 1399.02
642 1399.02
643 1399.02
644 1399.02
645 1399.02
646 1399.02
647 1399.02
648 1399.02
649 1399.02
650 1399.02
651 1399.02
652 1399.02
653 1399.02
654 1399.02
655 1399.02
656 1399.02
657 1399.02
658 1399.02
659 1399.02
660 1399.02
661 1399.02
662 1399.02
663 1399.02
664 1399.02
665 1399.02
666 1399.02
667 1399.02
668 1399.02
669 1399.02
670 1399.02
671 1399.02
672 1399.02
673 1399.02
674 1399.02
675 1399.02
676 1399.02
677 1399.02
678 1399.02
679 1399.02
680 1399.02
681 1399.02
682 1399.02
683 1399.02
684 1399.02
685 1399.02
686 1399.02
687 1399.02
688 1399.02
689 1399.02
690 1399.02
691 1399.02
692 1399.02
693 1399.02
694 1399.02
695 1399.02
696 1399.02
697 1399.02
698 1399.02
699 1399.02
700 1399.02
701 1399.02
702 1399.02
703 1399.02
704 1399.02
705 1399.02
706 1399.02
707 1399.02
708 1399.02
709 1399.02
710 1399.02
711 1399.02
712 1399.02
713 1399.02
714 1399.02
715 1399.02
716 1399.02
717 1399.02
718 1399.02
719 1399.02
720 1399.02
721 1399.02
722 1399.02
723 1399.02
724 1399.02
725 1399.02
726 1399.02
727 1399.02
728 1399.02
729 1399.02
730 1399.02
731 1399.02
732 1399.02
733 1399.02
734 1399.02
735 1399.02
736 1399.02
737 1399.02
738 1399.02
739 1399.02
740 1399.02
741 1399.02
742 1399.02
743 1399.02
744 1399.02
745 1399.02
746 1399.02
747 1399.02
748 1399.02
749 1399.02
750 1399.02
751 1399.02
752 1399.02
753 1399.02
754 1399.02
755 1399.02
756 1399.02
757 1399.02
758 1399.02
759 1399.02
760 1399.02
761 1399.02
762 1399.02
763 1399.02
764 1399.02
765 1399.02
766 1399.02
767 1399.02
768 1399.02
769 1399.02
770 1399.02
771 1399.02
772 1399.02
773 1399.02
774 1399.02
775 1399.02
776 1399.02
777 1399.02
778 1399.02
779 1399.02
780 1399.02
781 1399.02
782 1399.02
783 1399.02
784 1399.02
785 1399.02
786 1399.02
787 1399.02
788 1399.02
789 1399.02
790 1399.02
791 1399.02
792 1399.02
793 1399.02
794 1399.02
795 1399.02
796 1399.02
797 1399.02
798 1399.02
799 1399.02
800 1399.02
801 1399.02
802 1399.02
803 1399.02
804 1399.02
805 1399.02
806 1399.02
807 1399.02
808 1399.02
809 1399.02
810 1399.02
811 1399.02
812 1399.02
813 1399.02
814 1399.02
815 1399.02
816 1399.02
817 1399.02
818 1399.02
819 1399.02
820 1399.02
821 1399.02
822 1399.02
823 1399.02
824 1399.02
825 1399.02
826 1399.02
827 1399.02
828 1399.02
829 1399.02
830 1399.02
831 1399.02
832 1399.02
833 1399.02
834 1399.02
835 1399.02
836 1399.02
837 1399.02
838 1399.02
839 1399.02
840 1399.02
841 1399.02
842 1399.02
843 1399.02
844 1399.02
845 1399.02
846 1399.02
847 1399.02
848 1399.02
849 1399.02
850 1399.02
851 1399.02
852 1399.02
853 1399.02
854 1399.02
855 1399.02
856 1399.02
857 1399.02
858 1399.02
859 1399.02
860 1399.02
861 1399.02
862 1399.02
863 1399.02
864 1399.02
865 1399.02
866 1399.02
867 1399.02
868 1399.02
869 1399.02
870 1399.02
871 1399.02
872 1399.02
873 1399.02
874 1399.02
875 1399.02
876 1399.02
877 1399.02
878 1399.02
879 1399.02
880 1399.02
881 1399.02
882 1399.02
883 1399.02
884 1399.02
885 1399.02
886 1399.02
887 1399.02
888 1399.02
889 1399.02
890 1399.02
891 1399.02
892 1399.02
893 1399.02
894 1399.02
895 1399.02
896 1399.02
897 1399.02
898 1399.02
899 1399.02
900 1399.02
901 1399.02
902 1399.02
903 1399.02
904 1399.02
905 1399.02
906 1399.02
907 1399.02
908 1399.02
909 1399.02
910 1399.02
911 1399.02
912 1399.02
913 1399.02
914 1399.02
915 1399.02
916 1399.02
917 1399.02
918 1399.02
919 1399.02
920 1399.02
921 1399.02
922 1399.02
923 1399.02
924 1399.02
925 1399.02
926 1399.02
927 1399.02
928 1399.02
929 1399.02
930 1399.02
931 1399.02
932 1399.02
933 1399.02
934 1399.02
935 1399.02
936 1399.02
937 1399.02
938 1399.02
939 1399.02
940 1399.02
941 1399.02
942 1399.02
943 1399.02
944 1399.02
945 1399.02
946 1399.02
947 1399.02
948 1399.02
949 1399.02
950 1399.02
951 1399.02
952 1399.02
953 1399.02
954 1399.02
955 1399.02
956 1399.02
957 1399.02
958 1399.02
959 1399.02
960 1399.02
961 1399.02
962 1399.02
963 1399.02
964 1399.02
965 1399.02
966 1399.02
967 1399.02
968 1399.02
969 1399.02
970 1399.02
971 1399.02
972 1399.02
973 1399.02
974 1399.02
975 1399.02
976 1399.02
977 1399.02
978 1399.02
979 1399.02
980 1399.02
981 1399.02
982 1399.02
983 1399.02
984 1399.02
985 1399.02
986 1399.02
987 1399.02
988 1399.02
989 1399.02
990 1399.02
991 1399.02
992 1399.02
993 1399.02
994 1399.02
995 1399.02
996 1399.02
997 1399.02
998 1399.02
999 1399.02
1000 1399.02
1001 1399.02
1002 1399.02
1003 1399.02
1004 1399.02
1005 1399.02
1006 1399.02
1007 1399.02
1008 1399.02
1009 1399.02
1010 1399.02
1011 1399.02
1012 1399.02
1013 1399.02
1014 1399.02
1015 1399.02
1016 1399.02
1017 1399.02
1018 1399.02
1019 1399.02
1020 1399.02
1021 1399.02
1022 1399.02
1023 1399.02
1024 1399.02
1025 1399.02
1026 1399.02
1027 1399.02
1028 1399.02
1029 1399.02
1030 1399.02
1031 1399.02
1032 1399.02
1033 1399.02
1034 1399.02
1035 1399.02
1036 1399.02
1037 1399.02
1038 1399.02
1039 1399.02
1040 1399.02
1041 1399.02
1042 1399.02
1043 1399.02
1044 1399.02
1045 1399.02
1046 1399.02
1047 1399.02
1048 1399.02
1049 1399.02
1050 1399.02
1051 1399.02
1052 1399.02
1053 1399.02
1054 1399.02
1055 1399.02
1056 1399.02
1057 1399.02
1058 1399.02
1059 1399.02
1060 1399.02
1061 1399.02
1062 1399.02
1063 1399.02
1064 1399.02
1065 1399.02
1066 1399.02
1067 1399.02
1068 1399.02
1069 1399.02
1070 1399.02
1071 1399.02
1072 1399.02
1073 1399.02
1074 1399.02
1075 1399.02
1076 1399.02
1077 1399.02
1078 1399.02
1079 1399.02
1080 1399.02
1081 1399.02
1082 1399.02
1083 1399.02
1084 1399.02
1085 1399.02
1086 1399.02
1087 1399.02
1088 1399.02
1089 1399.02
1090 1399.02
1091 1399.02
1092 1399.02
1093 1399.02
1094 1399.02
1095 1399.02
1096 1399.02
1097 1399.02
1098 1399.02
1099 1399.02
1100 1399.02
1101 1399.02
1102 1399.02
1103 1399.02
1104 1399.02
1105 1399.02
1106 1399.02
1107 1399.02
1108 1399.02
1109 1399.02
1110 1399.02
1111 1399.02
1112 1399.02
1113 1399.02
1114 1399.02
1115 1399.02
1116 1399.02
1117 1399.02
1118 1399.02
1119 1399.02
1120 1399.02
1121 1399.02
1122 1399.02
1123 1399.02
1124 1399.02
1125 1399.02
1126 1399.02
1127 1399.02
1128 1399.02
1129 1399.02
1130 1399.02
1131 1399.02
1132 1399.02
1133 1399.02
1134 1399.02
1135 1399.02
1136 1399.02
1137 1399.02
1138 1399.02
1139 1399.02
1140 1399.02
1141 1399.02
1142 1399.02
1143 1399.02
1144 1399.02
1145 1399.02
1146 1399.02
1147 1399.02
1148 1399.02
1149 1399.02
1150 1399.02
1151 1399.02
1152 1399.02
1153 1399.02
1154 1399.02
1155 1399.02
1156 1399.02
1157 1399.02
1158 1399.02
1159 1399.02
1160 1399.02
1161 1399.02
1162 1399.02
1163 1399.02
1164 1399.02
1165 1399.02
1166 1399.02
1167 1399.02
1168 1399.02
1169 1399.02
1170 1399.02
1171 1399.02
1172 1399.02
1173 1399.02
1174 1399.02
1175 1399.02
1176 1399.02
1177 1399.02
1178 1399.02
1179 1399.02
1180 1399.02
1181 1399.02
1182 1399.02
1183 1399.02
1184 1399.02
1185 1399.02
1186 1399.02
1187 1399.02
1188 1399.02
1189 1399.02
1190 1399.02
1191 1399.02
1192 1399.02
1193 1399.02
1194 1399.02
1195 1399.02
1196 1399.02
1197 1399.02
1198 1399.02
1199 1399.02
1200 1399.02
1201 1399.02
1202 1399.02
1203 1399.02
1204 1399.02
1205 1399.02
1206 1399.02
1207 1399.02
1208 1399.02
1209 1399.02
1210 1399.02
1211 1399.02
1212 1399.02
1213 1399.02
1214 1399.02
1215 1399.02
1216 1399.02
1217 1399.02
1218 1399.02
1219 1399.02
1220 1399.02
1221 1399.02
1222 1399.02
1223 1399.02
1224 1399.02
1225 1399.02
1226 1399.02
1227 1399.02
1228 1399.02
1229 1399.02
1230 1399.02
1231 1399.02
1232 1399.02
1233 1399.02
1234 1399.02
1235 1399.02
1236 1399.02
1237 1399.02
1238 1399.02
1239 1399.02
1240 1399.02
1241 1399.02
1242 1399.02
1243 1399.02
1244 1399.02
1245 1399.02
1246 1399.02
1247 1399.02
1248 1399.02
1249 1399.02
1250 1399.02
1251 1399.02
1252 1399.02
1253 1399.02
1254 1399.02
1255 1399.02
1256 1399.02
1257 1399.02
1258 1399.02
1259 1399.02
1260 1399.02
1261 1399.02
1262 1399.02
1263 1399.02
1264 1399.02
1265 1399.02
1266 1399.02
1267 1399.02
1268 1399.02
1269 1399.02
1270 1399.02
1271 1399.02
1272 1399.02
1273 1399.02
1274 1399.02
1275 1399.02
1276 1399.02
1277 1399.02
1278 1399.02
1279 1399.02
1280 1399.02
1281 1399.02
1282 1399.02
1283 1399.02
1284 1399.02
1285 1399.02
1286 1399.02
1287 1399.02
1288 1399.02
1289 1399.02
1290 1399.02
1291 1399.02
1292 1399.02
1293 1399.02
1294 1399.02
1295 1399.02
1296 1399.02
1297 1399.02
1298 1399.02
1299 1399.02
1300 1399.02
1301 1399.02
1302 1399.02
1303 1399.02
1304 1399.02
1305 1399.02
1306 1399.02
1307 1399.02
1308 1399.02
1309 1399.02
1310 1399.02
1311 1399.02
1312 1399.02
1313 1399.02
1314 1399.02
1315 1399.02
1316 1399.02
1317 1399.02
1318 1399.02
1319 1399.02
1320 1399.02
1321 1399.02
1322 1399.02
1323 1399.02
1324 1399.02
1325 1399.02
1326 1399.02
1327 1399.02
1328 1399.02
1329 1399.02
1330 1399.02
1331 1399.02
1332 1399.02
1333 1399.02
1334 1399.02
1335 1399.02
1336 1399.02
1337 1399.02
1338 1399.02
1339 1399.02
1340 1399.02
1341 1399.02
1342 1399.02
1343 1399.02
1344 1399.02
1345 1399.02
1346 1399.02
1347 1399.02
1348 1399.02
1349 1399.02
1350 1399.02
1351 1399.02
1352 1399.02
1353 1399.02
1354 1399.02
1355 1399.02
1356 1399.02
1357 1399.02
1358 1399.02
1359 1399.02
1360 1399.02
1361 1399.02
1362 1399.02
1363 1399.02
1364 1399.02
1365 1399.02
1366 1399.02
1367 1399.02
1368 1399.02
1369 1399.02
1370 1399.02
1371 1399.02
1372 1399.02
1373 1399.02
1374 1399.02
1375 1399.02
1376 1399.02
1377 1399.02
1378 1399.02
1379 1399.02
1380 1399.02
1381 1399.02
1382 1399.02
1383 1399.02
1384 1399.02
1385 1399.02
1386 1399.02
1387 1399.02
1388 1399.02
1389 1399.02
1390 1399.02
1391 1399.02
1392 1399.02
1393 1399.02
1394 1399.02
1395 1399.02
1396 1399.02
1397 1399.02
1398 1399.02
1399 1399.02
1400 1399.02
1401 1399.02
1402 1399.02
1403 1399.02
1404 1399.02
1405 1399.02
1406 1399.02
1407 1399.02
1408 1399.02
1409 1399.02
1410 1399.02
1411 1399.02
1412 1399.02
1413 1399.02
1414 1399.02
1415 1399.02
1416 1399.02
1417 1399.02
1418 1399.02
1419 1399.02
1420 1399.02
1421 1399.02
1422 1399.02
1423 1399.02
1424 1399.02
1425 1399.02
1426 1399.02
1427 1399.02
1428 1399.02
1429 1399.02
1430 1399.02
1431 1399.02
1432 1399.02
1433 1399.02
1434 1399.02
1435 1399.02
1436 1399.02
1437 1399.02
1438 1399.02
1439 1399.02
1440 1399.02
1441 1399.02
1442 1399.02
1443 1399.02
1444 1399.02
1445 1399.02
1446 1399.02
1447 1399.02
1448 1399.02
1449 1399.02
1450 1399.02
1451 1399.02
1452 1399.02
1453 1399.02
1454 1399.02
1455 1399.02
1456 1399.02
1457 1399.02
1458 1399.02
1459 1399.02
1460 1399.02
1461 1399.02
1462 1399.02
1463 1399.02
1464 1399.02
1465 1399.02
1466 1399.02
1467 1399.02
1468 1399.02
1469 1399.02
1470 1399.02
1471 1399.02
1472 1399.02
1473 1399.02
1474 1399.02
1475 1399.02
1476 1399.02
1477 1399.02
1478 1399.02
1479 1399.02
1480 1399.02
1481 1399.02
1482 1399.02
1483 1399.02
1484 1399.02
1485 1399.02
1486 1399.02
1487 1399.02
1488 1399.02
1489 1399.02
1490 1399.02
1491 1399.02
1492 1399.02
1493 1399.02
1494 1399.02
1495 1399.02
1496 1399.02
1497 1399.02
1498 1399.02
1499 1399.02
1500 1399.02
1501 1399.02
1502 1399.02
1503 1399.02
1504 1399.02
1505 1399.02
1506 1399.02
1507 1399.02
1508 1399.02
1509 1399.02
1510 1399.02
1511 1399.02
1512 1399.02
1513 1399.02
1514 1399.02
1515 1399.02
1516 1399.02
1517 1399.02
1518 1399.02
1519 1399.02
1520 1399.02
1521 1399.02
1522 1399.02
1523 1399.02
1524 1399.02
1525 1399.02
1526 1399.02
1527 1399.02
1528 1399.02
1529 1399.02
1530 1399.02
1531 1399.02
1532 1399.02
1533 1399.02
1534 1399.02
1535 1399.02
1536 1399.02
1537 1399.02
1538 1399.02
1539 1399.02
1540 1399.02
1541 1399.02
1542 1399.02
1543 1399.02
1544 1399.02
1545 1399.02
1546 1399.02
1547 1399.02
1548 1399.02
1549 1399.02
1550 1399.02
1551 1399.02
1552 1399.02
1553 1399.02
1554 1399.02
1555 1399.02
1556 1399.02
1557 1399.02
1558 1399.02
1559 1399.02
1560 1399.02
1561 1399.02
1562 1399.02
1563 1399.02
1564 1399.02
1565 1399.02
1566 1399.02
1567 1399.02
1568 1399.02
1569 1399.02
1570 1399.02
1571 1399.02
1572 1399.02
1573 1399.02
1574 1399.02
1575 1399.02
1576 1399.02
1577 1399.02
1578 1399.02
1579 1399.02
1580 1399.02
1581 1399.02
1582 1399.02
1583 1399.02
1584 1399.02
1585 1399.02
1586 1399.02
1587 1399.02
1588 1399.02
1589 1399.02
1590 1399.02
1591 1399.02
1592 1399.02
1593 1399.02
1594 1399.02
1595 1399.02
1596 1399.02
1597 1399.02
1598 1399.02
1599 1399.02
1600 1399.02
1601 1399.02
1602 1399.02
1603 1399.02
1604 1399.02
1605 1399.02
1606 1399.02
1607 1399.02
1608 1399.02
1609 1399.02
1610 1399.02
1611 1399.02
1612 1399.02
1613 1399.02
1614 1399.02
1615 1399.02
1616 1399.02
1617 1399.02
1618 1399.02
1619 1399.02
1620 1399.02
1621 1399.02
1622 1399.02
1623 1399.02
1624 1399.02
1625 1399.02
1626 1399.02
1627 1399.02
1628 1399.02
1629 1399.02
1630 1399.02
1631 1399.02
1632 1399.02
1633 1399.02
1634 1399.02
1635 1399.02
1636 1399.02
1637 1399.02
1638 1399.02
1639 1399.02
1640 1399.02
1641 1399.02
1642 1399.02
1643 1399.02
1644 1399.02
1645 1399.02
1646 1399.02
1647 1399.02
1648 1399.02
1649 1399.02
1650 1399.02
1651 1399.02
1652 1399.02
1653 1399.02
1654 1399.02
1655 1399.02
1656 1399.02
1657 1399.02
1658 1399.02
1659 1399.02
1660 1399.02
1661 1399.02
1662 1399.02
1663 1399.02
1664 1399.02
1665 1399.02
1666 1399.02
1667 1399.02
1668 1399.02
1669 1399.02
1670 1399.02
1671 1399.02
1672 1399.02
1673 1399.02
1674 1399.02
1675 1399.02
1676 1399.02
1677 1399.02
1678 1399.02
1679 1399.02
1680 1399.02
1681 1399.02
1682 1399.02
1683 1399.02
1684 1399.02
1685 1399.02
1686 1399.02
1687 1399.02
1688 1399.02
1689 1399.02
1690 1399.02
1691 1399.02
1692 1399.02
1693 1399.02
1694 1399.02
1695 1399.02
1696 1399.02
1697 1399.02
1698 1399.02
1699 1399.02
1700 1399.02
1701 1399.02
1702 1399.02
1703 1399.02
1704 1399.02
1705 1399.02
1706 1399.02
1707 1399.02
1708 1399.02
1709 1399.02
1710 1399.02
1711 1399.02
1712 1399.02
1713 1399.02
1714 1399.02
1715 1399.02
1716 1399.02
1717 1399.02
1718 1399.02
1719 1399.02
1720 1399.02
1721 1399.02
1722 1399.02
1723 1399.02
1724 1399.02
1725 1399.02
1726 1399.02
1727 1399.02
1728 1399.02
1729 1399.02
1730 1399.02
1731 1399.02
1732 1399.02
1733 1399.02
1734 1399.02
1735 1399.02
1736 1399.02
1737 1399.02
1738 1399.02
1739 1399.02
1740 1399.02
1741 1399.02
1742 1399.02
1743 1399.02
1744 1399.02
1745 1399.02
1746 1399.02
1747 1399.02
1748 1399.02
1749 1399.02
1750 1399.02
1751 1399.02
1752 1399.02
1753 1399.02
1754 1399.02
1755 1399.02
1756 1399.02
1757 1399.02
1758 1399.02
1759 1399.02
1760 1399.02
1761 1399.02
1762 1399.02
1763 1399.02
1764 1399.02
1765 1399.02
1766 1399.02
1767 1399.02
1768 1399.02
1769 1399.02
1770 1399.02
1771 1399.02
1772 1399.02
1773 1399.02
1774 1399.02
1775 1399.02
1776 1399.02
1777 1399.02
1778 1399.02
1779 1399.02
1780 1399.02
1781 1399.02
1782 1399.02
1783 1399.02
1784 1399.02
1785 1399.02
1786 1399.02
1787 1399.02
1788 1399.02
1789 1399.02
1790 1399.02
1791 1399.02
1792 1399.02
1793 1399.02
1794 1399.02
1795 1399.02
1796 1399.02
1797 1399.02
1798 1399.02
1799 1399.02
1800 1399.02
1801 1399.02
1802 1399.02
1803 1399.02
1804 1399.02
1805 1399.02
1806 1399.02
1807 1399.02
1808 1399.02
1809 1399.02
1810 1399.02
1811 1399.02
1812 1399.02
1813 1399.02
1814 1399.02
1815 1399.02
1816 1399.02
1817 1399.02
1818 1399.02
1819 1399.02
1820 1399.02
1821 1399.02
1822 1399.02
1823 1399.02
1824 1399.02
1825 1399.02
1826 1399.02
1827 1399.02
1828 1399.02
1829 1399.02
1830 1399.02
1831 1399.02
1832 1399.02
1833 1399.02
1834 1399.02
1835 1399.02
1836 1399.02
1837 1399.02
1838 1399.02
1839 1399.02
1840 1399.02
1841 1399.02
1842 1399.02
1843 1399.02
1844 1399.02
1845 1399.02
1846 1399.02
1847 1399.02
1848 1399.02
1849 1399.02
1850 1399.02
1851 1399.02
1852 1399.02
1853 1399.02
1854 1399.02
1855 1399.02
1856 1399.02
1857 1399.02
1858 1399.02
1859 1399.02
1860 1399.02
1861 1399.02
1862 1399.02
1863 1399.02
1864 1399.02
1865 1399.02
1866 1399.02
1867 1399.02
1868 1399.02
1869 1399.02
1870 1399.02
1871 1399.02
1872 1399.02
1873 1399.02
1874 1399.02
1875 1399.02
1876 1399.02
1877 1399.02
1878 1399.02
1879 1399.02
1880 1399.02
1881 1399.02
1882 1399.02
1883 1399.02
1884 1399.02
1885 1399.02
1886 1399.02
1887 1399.02
1888 1399.02
1889 1399.02
1890 1399.02
1891 1399.02
1892 1399.02
1893 1399.02
1894 1399.02
1895 1399.02
1896 1399.02
1897 1399.02
1898 1399.02
1899 1399.02
1900 1399.02
1901 1399.02
1902 1399.02
1903 1399.02
1904 1399.02
1905 1399.02
1906 1399.02
1907 1399.02
1908 1399.02
1909 1399.02
1910 1399.02
1911 1399.02
1912 1399.02
1913 1399.02
1914 1399.02
1915 1399.02
1916 1399.02
1917 1399.02
1918 1399.02
1919 1399.02
1920 1399.02
1921 1399.02
1922 1399.02
1923 1399.02
1924 1399.02
1925 1399.02
1926 1399.02
1927 1399.02
1928 1399.02
1929 1399.02
1930 1399.02
1931 1399.02
1932 1399.02
1933 1399.02
1934 1399.02
1935 1399.02
1936 1399.02
1937 1399.02
1938 1399.02
1939 1399.02
1940 1399.02
1941 1399.02
1942 1399.02
1943 1399.02
1944 1399.02
1945 1399.02
1946 1399.02
1947 1399.02
1948 1399.02
1949 1399.02
1950 1399.02
1951 1399.02
1952 1399.02
1953 1399.02
1954 1399.02
1955 1399.02
1956 1399.02
1957 1399.02
1958 1399.02
1959 1399.02
1960 1399.02
1961 1399.02
1962 1399.02
1963 1399.02
1964 1399.02
1965 1399.02
1966 1399.02
1967 1399.02
1968 1399.02
1969 1399.02
1970 1399.02
1971 1399.02
1972 1399.02
1973 1399.02
1974 1399.02
1975 1399.02
1976 1399.02
1977 1399.02
1978 1399.02
1979 1399.02
1980 1399.02
1981 1399.02
1982 1399.02
1983 1399.02
1984 1399.02
1985 1399.02
1986 1399.02
1987 1399.02
1988 1399.02
1989 1399.02
1990 1399.02
1991 1399.02
1992 1399.02
1993 1399.02
1994 1399.02
1995 1399.02
1996 1399.02
1997 1399.02
1998 1399.02
1999 1399.02
2000 1399.02
# Run : 51
# Iteration : 2000
# Dimension : 15
# Best Objective : 1450
# Average Objective : 1399
# Execution Time : 0.202684(s)
